WARNING: for repeatability, setting FPU to use double precision
============================[ Problem Statistics ]=============================
|                                                                             |
|  Number of variables:            50                                         |
|  Number of clauses:             218                                         |
|  Parse time:                   0.00 s                                       |
|                                                                             |
============================[ Search Statistics ]==============================
| Conflicts |          ORIGINAL         |          LEARNT          | Progress |
|           |    Vars  Clauses Literals |    Limit  Clauses Lit/Cl |          |
===============================================================================
===============================================================================
restarts              : 1
conflicts             : 27             (17110 /sec)
decisions             : 35             (0.00 % random) (22180 /sec)
propagations          : 442            (280101 /sec)
conflict literals     : 117            (15.83 % deleted)
Memory used           : 20.00 MB
CPU time              : 0.001578 s

SATISFIABLE
